(set-info :source |printed by MathSAT|)
(declare-fun |.x{197}| () Int)
(declare-fun |.y{7}| () Int)
(declare-fun |.y{6}| () Int)
(declare-fun |.y{8}| () Int)
(declare-fun |.x{198}| () (Array Int Int))
(declare-fun |.y{9}| () (Array Int Int))
(declare-fun |.x{196}| () Int)
(declare-fun |.y{10}| () Int)
(declare-fun |.x{193}| () Int)
(declare-fun |.y{11}| () Int)
(declare-fun |.loc{4}| () Bool)
(declare-fun |.loc{7}| () Bool)
(declare-fun |.loc{5}| () Bool)
(declare-fun |.loc{8}| () Bool)
(declare-fun |.loc{6}| () Bool)
(declare-fun |.loc{9}| () Bool)
(declare-fun |.x{199}| () Int)
(define-fun .def_18 () Bool (! |.loc{4}| :next |.loc{7}|))
(define-fun .def_75 () Bool (not .def_18))
(define-fun .def_20 () Bool (! |.loc{5}| :next |.loc{8}|))
(define-fun .def_45 () Bool (not .def_20))
(define-fun .def_227 () Bool (and .def_45 .def_75))
(define-fun .def_22 () Bool (! |.loc{6}| :next |.loc{9}|))
(define-fun .def_24 () Bool (not .def_22))
(define-fun .def_228 () Bool (! (and .def_24 .def_227) :init true))
(define-fun .def_12 () (Array Int Int) (! |.x{198}| :next |.y{9}|))
(define-fun .def_174 () Int (select .def_12 |.x{199}|))
(define-fun .def_175 () Bool (= .def_174 46))
(define-fun .def_206 () Bool (not .def_175))
(define-fun .def_8 () Int (! |.x{197}| :next |.y{7}|))
(define-fun .def_29 () Bool (<= .def_8 0))
(define-fun .def_37 () Bool (not .def_29))
(define-fun .def_27 () Bool (<= |.x{199}| 0))
(define-fun .def_28 () Bool (not .def_27))
(define-fun .def_30 () Bool (or .def_28 .def_29))
(define-fun .def_172 () Bool (and .def_30 .def_37))
(define-fun .def_205 () Bool (and |.loc{7}| .def_172))
(define-fun .def_207 () Bool (and .def_205 .def_206))
(define-fun .def_47 () Int (* (- 1) |.x{199}|))
(define-fun .def_14 () Int (! |.x{196}| :next |.y{10}|))
(define-fun .def_185 () Int (+ .def_14 .def_47))
(define-fun .def_186 () Int (+ .def_8 .def_185))
(define-fun .def_187 () Bool (= .def_186 0))
(define-fun .def_208 () Bool (and .def_187 .def_207))
(define-fun .def_209 () Bool (and .def_20 .def_208))
(define-fun .def_210 () Bool (and .def_75 .def_209))
(define-fun .def_16 () Int (! |.x{193}| :next |.y{11}|))
(define-fun .def_193 () Bool (<= .def_16 .def_14))
(define-fun .def_194 () Bool (not .def_193))
(define-fun .def_211 () Bool (and .def_194 .def_210))
(define-fun .def_203 () Bool (= .def_14 |.y{11}|))
(define-fun .def_197 () Bool (= |.y{10}| 0))
(define-fun .def_86 () Bool (not |.loc{7}|))
(define-fun .def_196 () Bool (and .def_45 .def_86))
(define-fun .def_198 () Bool (and .def_196 .def_197))
(define-fun .def_10 () Int (! |.y{6}| :next |.y{8}|))
(define-fun .def_40 () Bool (<= .def_14 .def_10))
(define-fun .def_199 () Bool (and .def_40 .def_198))
(define-fun .def_60 () Bool (= .def_8 |.y{7}|))
(define-fun .def_200 () Bool (and .def_60 .def_199))
(define-fun .def_102 () Bool (= .def_12 |.y{9}|))
(define-fun .def_201 () Bool (and .def_102 .def_200))
(define-fun .def_202 () Bool (and .def_18 .def_201))
(define-fun .def_204 () Bool (and .def_202 .def_203))
(define-fun .def_212 () Bool (or .def_204 .def_211))
(define-fun .def_190 () Bool (= .def_16 |.y{11}|))
(define-fun .def_179 () Int (* (- 1) |.y{10}|))
(define-fun .def_180 () Int (+ .def_14 .def_179))
(define-fun .def_181 () Bool (= .def_180 (- 1)))
(define-fun .def_173 () Bool (and .def_86 .def_172))
(define-fun .def_176 () Bool (and .def_173 .def_175))
(define-fun .def_177 () Bool (and .def_60 .def_176))
(define-fun .def_178 () Bool (and .def_102 .def_177))
(define-fun .def_182 () Bool (and .def_178 .def_181))
(define-fun .def_188 () Bool (and .def_182 .def_187))
(define-fun .def_189 () Bool (and .def_20 .def_188))
(define-fun .def_191 () Bool (and .def_189 .def_190))
(define-fun .def_192 () Bool (and .def_75 .def_191))
(define-fun .def_195 () Bool (and .def_192 .def_194))
(define-fun .def_213 () Bool (or .def_195 .def_212))
(define-fun .def_214 () Bool (and |.loc{8}| .def_213))
(define-fun .def_43 () Bool (not |.loc{8}|))
(define-fun .def_164 () Bool (and |.loc{7}| .def_43))
(define-fun .def_165 () Bool (and .def_45 .def_164))
(define-fun .def_72 () Bool (= |.y{8}| 0))
(define-fun .def_166 () Bool (and .def_72 .def_165))
(define-fun .def_167 () Bool (and .def_40 .def_166))
(define-fun .def_168 () Bool (and .def_60 .def_167))
(define-fun .def_58 () Bool (= .def_14 |.y{10}|))
(define-fun .def_169 () Bool (and .def_58 .def_168))
(define-fun .def_170 () Bool (and .def_102 .def_169))
(define-fun .def_171 () Bool (and .def_75 .def_170))
(define-fun .def_215 () Bool (or .def_171 .def_214))
(define-fun .def_154 () (Array Int Int) (store .def_12 |.x{199}| 46))
(define-fun .def_155 () Bool (= |.y{9}| .def_154))
(define-fun .def_33 () Int (* (- 1) |.y{8}|))
(define-fun .def_34 () Int (+ .def_10 .def_33))
(define-fun .def_35 () Bool (= .def_34 (- 1)))
(define-fun .def_31 () Bool (and |.loc{7}| .def_30))
(define-fun .def_36 () Bool (and .def_31 .def_35))
(define-fun .def_38 () Bool (and .def_36 .def_37))
(define-fun .def_156 () Bool (and .def_38 .def_155))
(define-fun .def_41 () Bool (not .def_40))
(define-fun .def_157 () Bool (and .def_41 .def_156))
(define-fun .def_158 () Bool (and .def_43 .def_157))
(define-fun .def_159 () Bool (and .def_45 .def_158))
(define-fun .def_48 () Int (+ .def_10 .def_47))
(define-fun .def_49 () Int (+ .def_8 .def_48))
(define-fun .def_50 () Bool (= .def_49 0))
(define-fun .def_160 () Bool (and .def_50 .def_159))
(define-fun .def_161 () Bool (and .def_58 .def_160))
(define-fun .def_162 () Bool (and .def_60 .def_161))
(define-fun .def_163 () Bool (and .def_18 .def_162))
(define-fun .def_216 () Bool (or .def_163 .def_215))
(define-fun .def_217 () Bool (and .def_22 .def_216))
(define-fun .def_144 () Bool (and .def_24 .def_86))
(define-fun .def_145 () Bool (and .def_43 .def_144))
(define-fun .def_146 () Bool (and .def_72 .def_145))
(define-fun .def_147 () Bool (and .def_40 .def_146))
(define-fun .def_148 () Bool (and .def_60 .def_147))
(define-fun .def_149 () Bool (and .def_58 .def_148))
(define-fun .def_150 () Bool (and .def_102 .def_149))
(define-fun .def_151 () Bool (and .def_18 .def_150))
(define-fun .def_152 () Bool (and .def_20 .def_151))
(define-fun .def_218 () Bool (or .def_152 .def_217))
(define-fun .def_141 () (Array Int Int) (store .def_12 |.x{199}| 45))
(define-fun .def_142 () Bool (= |.y{9}| .def_141))
(define-fun .def_77 () Bool (and .def_30 .def_35))
(define-fun .def_78 () Bool (and .def_37 .def_77))
(define-fun .def_131 () Bool (and .def_41 .def_78))
(define-fun .def_132 () Bool (and .def_86 .def_131))
(define-fun .def_133 () Bool (and .def_43 .def_132))
(define-fun .def_134 () Bool (and .def_45 .def_133))
(define-fun .def_135 () Bool (and .def_50 .def_134))
(define-fun .def_136 () Bool (and .def_58 .def_135))
(define-fun .def_137 () Bool (and .def_60 .def_136))
(define-fun .def_138 () Bool (and .def_22 .def_137))
(define-fun .def_139 () Bool (and .def_75 .def_138))
(define-fun .def_143 () Bool (and .def_139 .def_142))
(define-fun .def_219 () Bool (or .def_143 .def_218))
(define-fun .def_220 () Bool (and |.loc{9}| .def_219))
(define-fun .def_121 () Bool (and |.loc{7}| |.loc{8}|))
(define-fun .def_122 () Bool (and .def_24 .def_121))
(define-fun .def_123 () Bool (and .def_72 .def_122))
(define-fun .def_56 () Bool (not |.loc{9}|))
(define-fun .def_124 () Bool (and .def_56 .def_123))
(define-fun .def_125 () Bool (and .def_40 .def_124))
(define-fun .def_126 () Bool (and .def_60 .def_125))
(define-fun .def_127 () Bool (and .def_58 .def_126))
(define-fun .def_128 () Bool (and .def_102 .def_127))
(define-fun .def_129 () Bool (and .def_20 .def_128))
(define-fun .def_130 () Bool (and .def_75 .def_129))
(define-fun .def_221 () Bool (or .def_130 .def_220))
(define-fun .def_106 () (Array Int Int) (store .def_12 |.x{199}| 44))
(define-fun .def_107 () Bool (= |.y{9}| .def_106))
(define-fun .def_108 () Bool (and .def_30 .def_107))
(define-fun .def_109 () Bool (and |.loc{7}| .def_108))
(define-fun .def_110 () Bool (and .def_35 .def_109))
(define-fun .def_111 () Bool (and .def_37 .def_110))
(define-fun .def_112 () Bool (and |.loc{8}| .def_111))
(define-fun .def_113 () Bool (and .def_24 .def_112))
(define-fun .def_114 () Bool (and .def_41 .def_113))
(define-fun .def_115 () Bool (and .def_50 .def_114))
(define-fun .def_116 () Bool (and .def_56 .def_115))
(define-fun .def_117 () Bool (and .def_58 .def_116))
(define-fun .def_118 () Bool (and .def_60 .def_117))
(define-fun .def_119 () Bool (and .def_18 .def_118))
(define-fun .def_120 () Bool (and .def_20 .def_119))
(define-fun .def_222 () Bool (or .def_120 .def_221))
(define-fun .def_94 () Bool (and |.loc{8}| .def_24))
(define-fun .def_95 () Bool (and .def_86 .def_94))
(define-fun .def_96 () Bool (and .def_45 .def_95))
(define-fun .def_97 () Bool (and .def_72 .def_96))
(define-fun .def_98 () Bool (and .def_56 .def_97))
(define-fun .def_99 () Bool (and .def_40 .def_98))
(define-fun .def_100 () Bool (and .def_60 .def_99))
(define-fun .def_101 () Bool (and .def_58 .def_100))
(define-fun .def_103 () Bool (and .def_101 .def_102))
(define-fun .def_104 () Bool (and .def_18 .def_103))
(define-fun .def_223 () Bool (or .def_104 .def_222))
(define-fun .def_81 () (Array Int Int) (store .def_12 |.x{199}| 43))
(define-fun .def_82 () Bool (= |.y{9}| .def_81))
(define-fun .def_79 () Bool (and |.loc{8}| .def_78))
(define-fun .def_83 () Bool (and .def_79 .def_82))
(define-fun .def_84 () Bool (and .def_24 .def_83))
(define-fun .def_85 () Bool (and .def_41 .def_84))
(define-fun .def_87 () Bool (and .def_85 .def_86))
(define-fun .def_88 () Bool (and .def_50 .def_87))
(define-fun .def_89 () Bool (and .def_56 .def_88))
(define-fun .def_90 () Bool (and .def_58 .def_89))
(define-fun .def_91 () Bool (and .def_60 .def_90))
(define-fun .def_92 () Bool (and .def_20 .def_91))
(define-fun .def_93 () Bool (and .def_75 .def_92))
(define-fun .def_224 () Bool (or .def_93 .def_223))
(define-fun .def_65 () Bool (<= |.y{7}| 0))
(define-fun .def_66 () Bool (not .def_65))
(define-fun .def_63 () Bool (<= |.y{10}| 0))
(define-fun .def_64 () Bool (not .def_63))
(define-fun .def_67 () Bool (and .def_64 .def_66))
(define-fun .def_68 () Bool (and |.loc{7}| .def_67))
(define-fun .def_69 () Bool (and .def_24 .def_68))
(define-fun .def_70 () Bool (and .def_43 .def_69))
(define-fun .def_71 () Bool (and .def_45 .def_70))
(define-fun .def_73 () Bool (and .def_71 .def_72))
(define-fun .def_74 () Bool (and .def_56 .def_73))
(define-fun .def_76 () Bool (and .def_74 .def_75))
(define-fun .def_225 () Bool (or .def_76 .def_224))
(define-fun .def_53 () (Array Int Int) (store .def_12 |.x{199}| 42))
(define-fun .def_54 () Bool (= |.y{9}| .def_53))
(define-fun .def_39 () Bool (and .def_24 .def_38))
(define-fun .def_42 () Bool (and .def_39 .def_41))
(define-fun .def_44 () Bool (and .def_42 .def_43))
(define-fun .def_46 () Bool (and .def_44 .def_45))
(define-fun .def_51 () Bool (and .def_46 .def_50))
(define-fun .def_55 () Bool (and .def_51 .def_54))
(define-fun .def_57 () Bool (and .def_55 .def_56))
(define-fun .def_59 () Bool (and .def_57 .def_58))
(define-fun .def_61 () Bool (and .def_59 .def_60))
(define-fun .def_62 () Bool (and .def_18 .def_61))
(define-fun .def_226 () Bool (! (or .def_62 .def_225) :trans true))
(define-fun .def_229 () Bool (and .def_18 .def_20))
(define-fun .def_230 () Bool (and .def_22 .def_229))
(define-fun .def_231 () Bool (! (not .def_230) :invar-property 0))
(assert true)
